BAYES
196
2 2 2 2 2 2 2 2 2 2 2 2 2 2 2 2 2 2 2 2 2 2 2 2 2 2 2 2 2 2 2 2 2 2 2 2 2 2 2 2 2 2 2 2 2 2 2 2 2 2 2 2 2 2 2 2 2 2 2 2 2 2 2 2 2 2 2 2 2 2 2 2 2 2 2 2 2 2 2 2 2 2 2 2 2 2 2 2 2 2 2 2 2 2 2 2 2 2 2 2 2 2 2 2 2 2 2 2 2 2 2 2 2 2 2 2 2 2 2 2 2 2 2 2 2 2 2 2 2 2 2 2 2 2 2 2 2 2 2 2 2 2 2 2 2 2 2 2 2 2 2 2 2 2 2 2 2 2 2 2 2 2 2 2 2 2 2 2 2 2 2 2 2 2 2 2 2 2 2 2 2 2 2 2 2 2 2 2 2 2 2 2 2 2 2 2
196
1 0
2 0 1
2 1 2
2 2 3
2 3 4
2 4 5
2 5 6
2 6 7
2 7 8
2 8 9
2 9 10
2 10 11
2 11 12
2 12 13
2 0 14
3 1 14 15
3 2 15 16
3 3 16 17
3 4 17 18
3 5 18 19
3 6 19 20
3 7 20 21
3 8 21 22
3 9 22 23
3 10 23 24
3 11 24 25
3 12 25 26
3 13 26 27
2 14 28
3 15 28 29
3 16 29 30
3 17 30 31
3 18 31 32
3 19 32 33
3 20 33 34
3 21 34 35
3 22 35 36
3 23 36 37
3 24 37 38
3 25 38 39
3 26 39 40
3 27 40 41
2 28 42
3 29 42 43
3 30 43 44
3 31 44 45
3 32 45 46
3 33 46 47
3 34 47 48
3 35 48 49
3 36 49 50
3 37 50 51
3 38 51 52
3 39 52 53
3 40 53 54
3 41 54 55
2 42 56
3 43 56 57
3 44 57 58
3 45 58 59
3 46 59 60
3 47 60 61
3 48 61 62
3 49 62 63
3 50 63 64
3 51 64 65
3 52 65 66
3 53 66 67
3 54 67 68
3 55 68 69
2 56 70
3 57 70 71
3 58 71 72
3 59 72 73
3 60 73 74
3 61 74 75
3 62 75 76
3 63 76 77
3 64 77 78
3 65 78 79
3 66 79 80
3 67 80 81
3 68 81 82
3 69 82 83
2 70 84
3 71 84 85
3 72 85 86
3 73 86 87
3 74 87 88
3 75 88 89
3 76 89 90
3 77 90 91
3 78 91 92
3 79 92 93
3 80 93 94
3 81 94 95
3 82 95 96
3 83 96 97
2 84 98
3 85 98 99
3 86 99 100
3 87 100 101
3 88 101 102
3 89 102 103
3 90 103 104
3 91 104 105
3 92 105 106
3 93 106 107
3 94 107 108
3 95 108 109
3 96 109 110
3 97 110 111
2 98 112
3 99 112 113
3 100 113 114
3 101 114 115
3 102 115 116
3 103 116 117
3 104 117 118
3 105 118 119
3 106 119 120
3 107 120 121
3 108 121 122
3 109 122 123
3 110 123 124
3 111 124 125
2 112 126
3 113 126 127
3 114 127 128
3 115 128 129
3 116 129 130
3 117 130 131
3 118 131 132
3 119 132 133
3 120 133 134
3 121 134 135
3 122 135 136
3 123 136 137
3 124 137 138
3 125 138 139
2 126 140
3 127 140 141
3 128 141 142
3 129 142 143
3 130 143 144
3 131 144 145
3 132 145 146
3 133 146 147
3 134 147 148
3 135 148 149
3 136 149 150
3 137 150 151
3 138 151 152
3 139 152 153
2 140 154
3 141 154 155
3 142 155 156
3 143 156 157
3 144 157 158
3 145 158 159
3 146 159 160
3 147 160 161
3 148 161 162
3 149 162 163
3 150 163 164
3 151 164 165
3 152 165 166
3 153 166 167
2 154 168
3 155 168 169
3 156 169 170
3 157 170 171
3 158 171 172
3 159 172 173
3 160 173 174
3 161 174 175
3 162 175 176
3 163 176 177
3 164 177 178
3 165 178 179
3 166 179 180
3 167 180 181
2 168 182
3 169 182 183
3 170 183 184
3 171 184 185
3 172 185 186
3 173 186 187
3 174 187 188
3 175 188 189
3 176 189 190
3 177 190 191
3 178 191 192
3 179 192 193
3 180 193 194
3 181 194 195
2
0.666344419105553 0.333655580894447
4
0 1 0 1
4
1 0 1 0
4
1 0 1 0
4
0 1 1 0
4
0.34454715714870293 0.6554528428512971 0.285713691847137 0.714286308152863
4
1 0 1 0
4
1 0 0 1
4
1 0 1 0
4
1 0 1 0
4
0 1 1 0
4
0 1 1 0
4
0 1 1 0
4
0.925022215472413 0.07497778452758695 0.8844430528535336 0.11555694714646639
4
1 0 1 0
8
0 1 1 0 1 0 1 0
8
0 1 1 0 1 0 0 1
8
1 0 1 0 1 0 0 1
8
0 1 1 0 1 0 1 0
8
0.8558622364767936 0.1441377635232065 0.8410641526809994 0.1589358473190006 0.38910068329116476 0.6108993167088352 0.6759350095108724 0.3240649904891276
8
0.5506312461873787 0.4493687538126212 0.3830061015064237 0.6169938984935762 0.49955297945462857 0.5004470205453714 0.1523959797284173 0.8476040202715827
8
0 1 0 1 0 1 1 0
8
1 0 0 1 0 1 0 1
8
1 0 0 1 0 1 0 1
8
1 0 1 0 0 1 1 0
8
0 1 0 1 1 0 0 1
8
0 1 0 1 0 1 0 1
8
1 0 1 0 1 0 0 1
4
0 1 1 0
8
1 0 1 0 0 1 0 1
8
1 0 1 0 0 1 0 1
8
1 0 0 1 1 0 0 1
8
0 1 1 0 1 0 1 0
8
0 1 0 1 0 1 0 1
8
1 0 0 1 1 0 1 0
8
0 1 1 0 0 1 1 0
8
0.3095060847982638 0.6904939152017362 0.2588282246577396 0.7411717753422604 0.9612444288964471 0.0387555711035529 0.25790367019553395 0.742096329804466
8
0 1 1 0 0 1 0 1
8
0 1 1 0 0 1 0 1
8
1 0 1 0 1 0 1 0
8
0.16406261037298156 0.8359373896270185 0.4407937030913871 0.5592062969086129 0.9776412129223242 0.02235878707767564 0.5984891785132377 0.4015108214867623
8
0 1 0 1 1 0 1 0
4
1 0 1 0
8
1 0 0 1 1 0 0 1
8
0 1 1 0 1 0 0 1
8
0 1 0 1 0 1 0 1
8
0 1 1 0 1 0 0 1
8
1 0 0 1 1 0 1 0
8
1 0 0 1 1 0 0 1
8
0 1 0 1 1 0 0 1
8
0 1 1 0 0 1 0 1
8
1 0 1 0 1 0 0 1
8
0 1 1 0 0 1 0 1
8
1 0 0 1 1 0 0 1
8
0 1 1 0 1 0 0 1
8
1 0 1 0 0 1 0 1
4
0 1 1 0
8
1 0 1 0 0 1 1 0
8
1 0 0 1 0 1 0 1
8
0 1 0 1 0 1 0 1
8
0 1 1 0 0 1 1 0
8
0 1 1 0 0 1 1 0
8
1 0 1 0 0 1 0 1
8
1 0 1 0 1 0 1 0
8
0 1 0 1 0 1 1 0
8
1 0 1 0 1 0 0 1
8
1 0 0 1 0 1 1 0
8
1 0 0 1 1 0 1 0
8
0 1 0 1 1 0 1 0
8
0 1 0 1 0 1 1 0
4
1 0 0 1
8
1 0 1 0 0 1 0 1
8
1 0 0 1 0 1 0 1
8
1 0 0 1 1 0 0 1
8
0 1 1 0 1 0 0 1
8
1 0 0 1 1 0 1 0
8
0 1 1 0 0 1 1 0
8
1 0 0 1 0 1 1 0
8
0 1 1 0 0 1 1 0
8
1 0 0 1 1 0 1 0
8
0.29196626451527175 0.7080337354847283 0.6139855770338215 0.38601442296617844 0.41706182505891515 0.5829381749410848 0.8489586370997543 0.15104136290024572
8
1 0 0 1 1 0 0 1
8
1 0 0 1 0 1 1 0
8
0 1 0 1 0 1 0 1
4
1 0 1 0
8
0 1 1 0 1 0 0 1
8
1 0 1 0 0 1 0 1
8
1 0 1 0 1 0 0 1
8
0 1 1 0 1 0 0 1
8
0 1 1 0 1 0 0 1
8
0 1 0 1 0 1 0 1
8
1 0 0 1 0 1 1 0
8
0 1 0 1 0 1 1 0
8
1 0 1 0 0 1 0 1
8
0 1 1 0 1 0 0 1
8
1 0 1 0 1 0 0 1
8
1 0 1 0 0 1 0 1
8
0 1 0 1 0 1 1 0
4
1 0 1 0
8
1 0 0 1 1 0 0 1
8
0 1 1 0 1 0 1 0
8
0.40887069993944214 0.5911293000605579 0.471882602054278 0.5281173979457219 0.8274013642093677 0.17259863579063228 0.43376627723752426 0.5662337227624757
8
1 0 0 1 1 0 1 0
8
0 1 0 1 1 0 1 0
8
0 1 1 0 0 1 0 1
8
0 1 1 0 0 1 1 0
8
1 0 1 0 1 0 1 0
8
1 0 1 0 1 0 0 1
8
0 1 1 0 0 1 1 0
8
1 0 0 1 1 0 0 1
8
0 1 0 1 1 0 1 0
8
1 0 0 1 0 1 0 1
4
1 0 1 0
8
1 0 1 0 1 0 1 0
8
0 1 0 1 1 0 0 1
8
0 1 0 1 0 1 1 0
8
0 1 0 1 0 1 0 1
8
0 1 0 1 1 0 1 0
8
1 0 0 1 1 0 0 1
8
0.456348501294363 0.543651498705637 0.5295595953097538 0.47044040469024617 0.8505019666344877 0.14949803336551212 0.9851236641712084 0.014876335828791536
8
0 1 1 0 0 1 0 1
8
1 0 0 1 0 1 1 0
8
1 0 0 1 0 1 1 0
8
1 0 1 0 0 1 1 0
8
0 1 1 0 0 1 1 0
8
0 1 0 1 0 1 1 0
4
0 1 1 0
8
0.08971421204397032 0.9102857879560297 0.25347994524660966 0.7465200547533904 0.049613284243416135 0.9503867157565838 0.5055071222216477 0.49449287777835216
8
0 1 0 1 1 0 0 1
8
0 1 0 1 0 1 0 1
8
1 0 0 1 0 1 0 1
8
1 0 0 1 1 0 0 1
8
1 0 0 1 1 0 0 1
8
1 0 0 1 1 0 1 0
8
0 1 1 0 1 0 0 1
8
1 0 1 0 0 1 1 0
8
0 1 0 1 0 1 1 0
8
0 1 1 0 1 0 0 1
8
0 1 1 0 1 0 0 1
8
0.49314382677224267 0.5068561732277573 0.5511979194284625 0.4488020805715376 0.3689277994690012 0.6310722005309988 0.7877544469851608 0.2122455530148392
4
1 0 1 0
8
1 0 0 1 1 0 1 0
8
0.4202924026195553 0.5797075973804446 0.791731785586324 0.20826821441367607 0.866010954337613 0.13398904566238698 0.429365911946129 0.5706340880538711
8
0.23508472543462752 0.7649152745653724 0.47929159242450176 0.5207084075754982 0.47764090741195275 0.5223590925880472 0.1800965978204789 0.8199034021795211
8
0 1 0 1 1 0 0 1
8
1 0 1 0 1 0 1 0
8
0 1 1 0 0 1 0 1
8
1 0 1 0 1 0 1 0
8
1 0 1 0 0 1 0 1
8
0 1 0 1 1 0 1 0
8
1 0 1 0 0 1 0 1
8
1 0 0 1 0 1 0 1
8
1 0 0 1 0 1 1 0
8
0.30505285671576055 0.6949471432842395 0.26056470724451086 0.7394352927554891 0.7239103801538055 0.2760896198461945 0.012480898604099917 0.9875191013959
4
1 0 0 1
8
1 0 0 1 1 0 0 1
8
0 1 1 0 0 1 0 1
8
1 0 1 0 1 0 1 0
8
1 0 0 1 0 1 0 1
8
0 1 1 0 0 1 1 0
8
1 0 1 0 1 0 0 1
8
0 1 0 1 1 0 0 1
8
0 1 0 1 1 0 0 1
8
0 1 1 0 1 0 1 0
8
0 1 1 0 1 0 1 0
8
1 0 1 0 0 1 0 1
8
1 0 0 1 1 0 0 1
8
0 1 1 0 0 1 0 1
4
0.9185236246397074 0.08147637536029254 0.8387114944340475 0.1612885055659526
8
0 1 1 0 1 0 1 0
8
1 0 0 1 0 1 0 1
8
1 0 0 1 1 0 1 0
8
0.49138994147725307 0.5086100585227469 0.8846486654007029 0.11535133459929711 0.2798860487846734 0.7201139512153266 0.9921355015718231 0.007864498428176953
8
1 0 1 0 0 1 0 1
8
0 1 1 0 0 1 1 0
8
0 1 1 0 0 1 1 0
8
1 0 0 1 1 0 1 0
8
1 0 0 1 0 1 0 1
8
0 1 0 1 1 0 0 1
8
0 1 0 1 1 0 0 1
8
1 0 1 0 1 0 1 0
8
1 0 0 1 1 0 1 0
4
1 0 0 1
8
0.42885742752149686 0.5711425724785031 0.3826256871113751 0.6173743128886249 0.4394601106133741 0.5605398893866259 0.3576922732743064 0.6423077267256936
8
1 0 0 1 1 0 1 0
8
0 1 1 0 1 0 0 1
8
0 1 0 1 0 1 0 1
8
0 1 0 1 0 1 0 1
8
0 1 0 1 0 1 0 1
8
1 0 1 0 1 0 1 0
8
0.6985998238202722 0.3014001761797277 0.32108703306831243 0.6789129669316876 0.4029955878258798 0.5970044121741203 0.8524510515530708 0.1475489484469293
8
1 0 1 0 0 1 0 1
8
0 1 1 0 1 0 1 0
8
0.7376885558386638 0.2623114441613363 0.6024068686234398 0.3975931313765602 0.6719701754985454 0.32802982450145446 0.7327531371104868 0.2672468628895131
8
1 0 1 0 0 1 1 0
8
1 0 1 0 1 0 0 1
